<?xml version = "1.0" encoding="UTF-8" standalone="yes"?>
<CPLEXSolution version="1.2">
 <header
   problemName="IloCplex"
   solutionName="p0"
   solutionIndex="-1"
   objectiveValue="186802.99999995859"
   solutionTypeValue="3"
   solutionTypeString="primal"
   solutionStatusValue="127"
   solutionStatusString="integer feasible solution"
   solutionMethodString="mip"
   primalFeasible="0"
   dualFeasible="0"
   writeLevel="3"/>
 <quality
   epInt="1.0000000000000001e-05"
   epRHS="9.9999999999999995e-07"
   maxIntInfeas="7.5539574595495651e-12"
   maxPrimalInfeas="5.3632946891881938e-09"
   maxX="710.00000000232069"
   maxSlack="90.000000005156721"/>
 <variables>
  <variable name="x1" index="0" value="710"/>
  <variable name="w0_0" index="1" value="709.9999999999992"/>
  <variable name="w0_2" index="3" value="710"/>
  <variable name="w1_3" index="8" value="710"/>
  <variable name="w2_3" index="12" value="710"/>
  <variable name="w3_2" index="15" value="710"/>
  <variable name="w4_3" index="20" value="-5.3632946891881938e-09"/>
  <variable name="w5_1" index="22" value="709.99999999975262"/>
  <variable name="w5_2" index="23" value="709.99999999975262"/>
  <variable name="w6_0" index="25" value="710"/>
  <variable name="w6_3" index="28" value="709.99999999999932"/>
  <variable name="w7_2" index="31" value="709.99999999999091"/>
  <variable name="w8_0" index="33" value="710"/>
  <variable name="w8_2" index="35" value="710"/>
  <variable name="w10_3" index="44" value="710"/>
  <variable name="w11_1" index="46" value="710"/>
  <variable name="w11_2" index="47" value="710"/>
  <variable name="w12_0" index="49" value="6.6591303252164457e-10"/>
  <variable name="w12_1" index="50" value="6.6528678907059998e-10"/>
  <variable name="w12_2" index="51" value="710"/>
  <variable name="w13_1" index="54" value="710"/>
  <variable name="w14_0" index="57" value="710"/>
  <variable name="w14_1" index="58" value="710"/>
  <variable name="w15_0" index="61" value="710"/>
  <variable name="w15_1" index="62" value="710"/>
  <variable name="w15_2" index="63" value="710"/>
  <variable name="w16_3" index="68" value="710"/>
  <variable name="w17_1" index="70" value="710"/>
  <variable name="w17_2" index="71" value="5.939899433052766e-10"/>
  <variable name="w18_0" index="73" value="710"/>
  <variable name="w18_1" index="74" value="710"/>
  <variable name="w19_2" index="79" value="710"/>
  <variable name="w20_1" index="82" value="710"/>
  <variable name="w20_2" index="83" value="710"/>
  <variable name="w21_1" index="86" value="710"/>
  <variable name="w22_0" index="89" value="1.4297863639618841e-09"/>
  <variable name="w22_1" index="90" value="1.431107380165794e-09"/>
  <variable name="w22_2" index="91" value="1.4304468720638397e-09"/>
  <variable name="w22_3" index="92" value="709.99999999856948"/>
  <variable name="w23_0" index="93" value="710"/>
  <variable name="w23_3" index="96" value="710"/>
  <variable name="w24_2" index="99" value="710"/>
  <variable name="w25_0" index="101" value="-1.1169016611784798e-09"/>
  <variable name="w25_3" index="104" value="710.00000000072032"/>
  <variable name="w28_0" index="113" value="710"/>
  <variable name="w28_2" index="115" value="710"/>
  <variable name="w29_0" index="117" value="709.99999999999943"/>
  <variable name="w29_1" index="118" value="710"/>
  <variable name="w30_1" index="122" value="710"/>
  <variable name="w31_1" index="126" value="710"/>
  <variable name="w32_0" index="129" value="710"/>
  <variable name="w33_1" index="134" value="710"/>
  <variable name="w33_2" index="135" value="710"/>
  <variable name="w35_0" index="141" value="710"/>
  <variable name="w35_1" index="142" value="710"/>
  <variable name="w35_2" index="143" value="710"/>
  <variable name="w36_0" index="145" value="709.99999999999943"/>
  <variable name="w36_1" index="146" value="710"/>
  <variable name="w37_0" index="149" value="709.99999999960403"/>
  <variable name="w37_1" index="150" value="710"/>
  <variable name="w37_2" index="151" value="709.99999999940519"/>
  <variable name="w37_3" index="152" value="5.9398994330526295e-10"/>
  <variable name="w38_0" index="153" value="710"/>
  <variable name="w38_1" index="154" value="710"/>
  <variable name="w39_0" index="157" value="710.00000000022305"/>
  <variable name="w39_2" index="159" value="709.99999999999943"/>
  <variable name="w40_2" index="163" value="6.6591303252164871e-10"/>
  <variable name="w40_3" index="164" value="709.99999999916861"/>
  <variable name="w41_1" index="166" value="710"/>
  <variable name="w42_0" index="169" value="1.933501924006581e-10"/>
  <variable name="w42_1" index="170" value="710.00000000232069"/>
  <variable name="w42_3" index="172" value="1.933501924006581e-10"/>
  <variable name="w43_0" index="173" value="710"/>
  <variable name="w44_0" index="177" value="710"/>
  <variable name="w44_3" index="180" value="710"/>
  <variable name="w47_0" index="189" value="710"/>
  <variable name="w48_1" index="194" value="709.9999999999992"/>
  <variable name="w48_2" index="195" value="710"/>
  <variable name="w49_0" index="197" value="-1.1833662938443013e-09"/>
  <variable name="w49_2" index="199" value="709.99999999800002"/>
  <variable name="x0_20" index="221" value="1"/>
  <variable name="x1_10" index="261" value="1"/>
  <variable name="x2_5" index="306" value="1"/>
  <variable name="x3_23" index="374" value="1"/>
  <variable name="x4_0" index="401" value="-7.5539361819552099e-12"/>
  <variable name="x4_5" index="406" value="9.8859642469951332e-13"/>
  <variable name="x4_21" index="422" value="9.3790567960795734e-13"/>
  <variable name="x4_49" index="450" value="1.0000000000056275"/>
  <variable name="x5_14" index="465" value="0.99999999999965272"/>
  <variable name="x5_48" index="499" value="2.7886851798369946e-13"/>
  <variable name="x6_0" index="501" value="6.4450064133553203e-12"/>
  <variable name="x6_4" index="505" value="1"/>
  <variable name="x6_39" index="540" value="-2.1483354711184396e-12"/>
  <variable name="x6_49" index="550" value="-4.2966709422368807e-12"/>
  <variable name="x7_25" index="576" value="1.0000000000001013"/>
  <variable name="x7_34" index="585" value="-1.0130012565687668e-13"/>
  <variable name="x8_8" index="609" value="0.99999999999916345"/>
  <variable name="x8_12" index="613" value="8.3660555395108107e-13"/>
  <variable name="x9_47" index="698" value="1"/>
  <variable name="x10_6" index="707" value="1"/>
  <variable name="x11_19" index="770" value="1"/>
  <variable name="x12_7" index="808" value="9.3790567960795734e-13"/>
  <variable name="x12_21" index="822" value="0.99999999999906208"/>
  <variable name="x13_33" index="884" value="1"/>
  <variable name="x14_30" index="931" value="1"/>
  <variable name="x15_16" index="967" value="1"/>
  <variable name="x16_1" index="1002" value="1"/>
  <variable name="x16_41" index="1042" value="4.4358771180361926e-13"/>
  <variable name="x16_46" index="1047" value="8.8717542360723843e-13"/>
  <variable name="x16_49" index="1050" value="-1.3307631354108577e-12"/>
  <variable name="x17_9" index="1060" value="8.366055539510947e-13"/>
  <variable name="x17_19" index="1070" value="-2.7886851798369946e-13"/>
  <variable name="x17_35" index="1086" value="0.99999999999944222"/>
  <variable name="x18_31" index="1132" value="1"/>
  <variable name="x19_27" index="1178" value="1"/>
  <variable name="x20_12" index="1213" value="0.99999999999916345"/>
  <variable name="x20_13" index="1214" value="8.3660555395108107e-13"/>
  <variable name="x21_40" index="1291" value="1"/>
  <variable name="x22_9" index="1310" value="0.99999999999798606"/>
  <variable name="x22_14" index="1315" value="2.0138960876598291e-12"/>
  <variable name="x23_2" index="1353" value="1"/>
  <variable name="x24_24" index="1425" value="1"/>
  <variable name="x25_3" index="1454" value="1.0000000000009004"/>
  <variable name="x25_25" index="1476" value="-1.0130012565687668e-13"/>
  <variable name="x25_41" index="1492" value="-7.9914543573758182e-13"/>
  <variable name="x26_44" index="1545" value="1"/>
  <variable name="x27_43" index="1594" value="1"/>
  <variable name="x28_17" index="1618" value="1"/>
  <variable name="x29_28" index="1679" value="1"/>
  <variable name="x30_38" index="1739" value="1"/>
  <variable name="x31_37" index="1788" value="1"/>
  <variable name="x32_40" index="1841" value="-1.7777886196698125e-13"/>
  <variable name="x32_41" index="1842" value="1.0000000000001779"/>
  <variable name="x33_11" index="1862" value="1"/>
  <variable name="x34_45" index="1946" value="1.0000000000005733"/>
  <variable name="x34_46" index="1947" value="-5.7342339010396995e-13"/>
  <variable name="x35_15" index="1966" value="1"/>
  <variable name="x36_29" index="2030" value="1"/>
  <variable name="x37_0" index="2051" value="8.3660555395107531e-13"/>
  <variable name="x37_5" index="2056" value="-8.2091919981449469e-13"/>
  <variable name="x37_9" index="2060" value="8.3660555395107531e-13"/>
  <variable name="x37_13" index="2064" value="0.99999999999916345"/>
  <variable name="x37_35" index="2086" value="5.5773703596739519e-13"/>
  <variable name="x37_45" index="2096" value="-5.7342339010396995e-13"/>
  <variable name="x38_32" index="2133" value="1"/>
  <variable name="x39_18" index="2169" value="1"/>
  <variable name="x39_19" index="2170" value="2.7886851798369946e-13"/>
  <variable name="x39_48" index="2199" value="-2.7886851798369946e-13"/>
  <variable name="x40_7" index="2208" value="0.99999999999906208"/>
  <variable name="x40_8" index="2209" value="8.3660555395108107e-13"/>
  <variable name="x40_34" index="2235" value="1.0130012565687628e-13"/>
  <variable name="x41_36" index="2287" value="1"/>
  <variable name="x42_0" index="2301" value="2.723242146488145e-13"/>
  <variable name="x42_5" index="2306" value="-1.6767722488501868e-13"/>
  <variable name="x42_9" index="2310" value="2.723242146488145e-13"/>
  <variable name="x42_39" index="2340" value="1.0000000000021483"/>
  <variable name="x42_40" index="2341" value="1.7777886196698125e-13"/>
  <variable name="x42_41" index="2342" value="1.7777886196698128e-13"/>
  <variable name="x42_46" index="2347" value="-2.8808643994650117e-12"/>
  <variable name="x43_42" index="2393" value="1"/>
  <variable name="x44_0" index="2401" value="1"/>
  <variable name="x45_48" index="2499" value="1"/>
  <variable name="x46_46" index="2547" value="1"/>
  <variable name="x47_34" index="2585" value="1"/>
  <variable name="x48_22" index="2623" value="1"/>
  <variable name="x49_14" index="2665" value="-1.666666804567285e-12"/>
  <variable name="x49_26" index="2677" value="1"/>
  <variable name="x49_46" index="2697" value="1.666666804567285e-12"/>
  <variable name="v0_0" index="2701" value="1"/>
  <variable name="v0_2" index="2703" value="1"/>
  <variable name="v1_3" index="2708" value="1"/>
  <variable name="v2_3" index="2712" value="1"/>
  <variable name="v3_2" index="2715" value="1"/>
  <variable name="v4_3" index="2720" value="-6.5653397572556966e-12"/>
  <variable name="v5_1" index="2722" value="0.99999999999969069"/>
  <variable name="v5_2" index="2723" value="0.99999999999969069"/>
  <variable name="v6_0" index="2725" value="1"/>
  <variable name="v6_3" index="2728" value="1.0000000000064451"/>
  <variable name="v7_2" index="2731" value="1"/>
  <variable name="v8_0" index="2733" value="1"/>
  <variable name="v8_2" index="2735" value="1"/>
  <variable name="v10_3" index="2744" value="1"/>
  <variable name="v11_1" index="2746" value="1"/>
  <variable name="v11_2" index="2747" value="1"/>
  <variable name="v12_0" index="2749" value="9.3790567960795007e-13"/>
  <variable name="v12_1" index="2750" value="9.3790567960796098e-13"/>
  <variable name="v12_2" index="2751" value="1"/>
  <variable name="v13_1" index="2754" value="1"/>
  <variable name="v14_0" index="2757" value="1"/>
  <variable name="v14_1" index="2758" value="1"/>
  <variable name="v15_0" index="2761" value="1"/>
  <variable name="v15_1" index="2762" value="1"/>
  <variable name="v15_2" index="2763" value="1"/>
  <variable name="v16_2" index="2767" value="4.4358771180361926e-13"/>
  <variable name="v16_3" index="2768" value="1"/>
  <variable name="v17_1" index="2770" value="1"/>
  <variable name="v17_2" index="2771" value="8.3660555395109379e-13"/>
  <variable name="v18_0" index="2773" value="1"/>
  <variable name="v18_1" index="2774" value="1"/>
  <variable name="v19_2" index="2779" value="1"/>
  <variable name="v20_1" index="2782" value="1"/>
  <variable name="v20_2" index="2783" value="1"/>
  <variable name="v21_1" index="2786" value="1"/>
  <variable name="v22_0" index="2789" value="2.0138960876598271e-12"/>
  <variable name="v22_1" index="2790" value="2.0155473579147144e-12"/>
  <variable name="v22_2" index="2791" value="2.0147217227872716e-12"/>
  <variable name="v22_3" index="2792" value="0.99999999999798528"/>
  <variable name="v23_0" index="2793" value="1"/>
  <variable name="v23_3" index="2796" value="1"/>
  <variable name="v24_2" index="2799" value="1"/>
  <variable name="v25_0" index="2801" value="-1.4973083620453379e-12"/>
  <variable name="v25_1" index="2802" value="-1.0114131754335176e-13"/>
  <variable name="v25_2" index="2803" value="-1.0130012565687645e-13"/>
  <variable name="v25_3" index="2804" value="1.0000000000009004"/>
  <variable name="v28_0" index="2813" value="1"/>
  <variable name="v28_2" index="2815" value="1"/>
  <variable name="v29_0" index="2817" value="1"/>
  <variable name="v29_1" index="2818" value="1"/>
  <variable name="v30_1" index="2822" value="1"/>
  <variable name="v31_1" index="2826" value="1"/>
  <variable name="v32_0" index="2829" value="1"/>
  <variable name="v33_1" index="2834" value="1"/>
  <variable name="v33_2" index="2835" value="1"/>
  <variable name="v35_0" index="2841" value="1"/>
  <variable name="v35_1" index="2842" value="1"/>
  <variable name="v35_2" index="2843" value="1"/>
  <variable name="v36_0" index="2845" value="1"/>
  <variable name="v36_1" index="2846" value="1"/>
  <variable name="v37_0" index="2849" value="0.99999999999944222"/>
  <variable name="v37_1" index="2850" value="1"/>
  <variable name="v37_2" index="2851" value="0.99999999999919476"/>
  <variable name="v37_3" index="2852" value="8.3660555395107461e-13"/>
  <variable name="v38_0" index="2853" value="1"/>
  <variable name="v38_1" index="2854" value="1"/>
  <variable name="v39_0" index="2857" value="1.0000000000002789"/>
  <variable name="v39_2" index="2859" value="1"/>
  <variable name="v39_3" index="2860" value="1.3943425899184976e-13"/>
  <variable name="v40_0" index="2861" value="4.0555230954024524e-12"/>
  <variable name="v40_2" index="2863" value="9.3790567960795593e-13"/>
  <variable name="v40_3" index="2864" value="0.99999999999896083"/>
  <variable name="v41_1" index="2866" value="1"/>
  <variable name="v42_1" index="2870" value="1.0000000000028808"/>
  <variable name="v42_3" index="2872" value="2.7232421464881425e-13"/>
  <variable name="v43_0" index="2873" value="1"/>
  <variable name="v44_0" index="2877" value="1"/>
  <variable name="v44_3" index="2880" value="1"/>
  <variable name="v47_0" index="2889" value="1"/>
  <variable name="v48_1" index="2894" value="1"/>
  <variable name="v48_2" index="2895" value="1"/>
  <variable name="v49_0" index="2897" value="-1.666666804567285e-12"/>
  <variable name="v49_2" index="2899" value="0.9999999999975"/>
 </variables>
</CPLEXSolution>
